20J7M/DAT/20J7MNNL-6.dat
20 7
21.7314 21.7314
28.8391 28.8391
23.6448 23.6448
24.8437 24.8437
16.9991 16.9991
29.9782 29.9782
19.3423 19.3423
30.4645 30.4645
21.527 21.527
23.99 23.99
27.8121 27.8121
28.1079 28.1079
20.0516 20.0516
30.1095 30.1095
24.5132 24.5132
30.6347 30.6347
28.1089 28.1089
27.9985 27.9985
27.3854 27.3854
22.3431 22.3431
508.425