20J7M/SOL/20J7MNNL-6.sol
solution status: optimal solution found
objective value:                     72.6321428571429
x#1#5                                               1 	(obj:0)
x#2#1                               0.141959056578445 	(obj:0)
x#2#3                                0.16418978797139 	(obj:0)
x#2#4                               0.693851155450165 	(obj:0)
x#3#5                                               1 	(obj:0)
x#4#1                                               1 	(obj:0)
x#5#6                                               1 	(obj:0)
x#6#3                                               1 	(obj:0)
x#7#3                                               1 	(obj:0)
x#8#2                               0.390222812031803 	(obj:0)
x#8#3                               0.609777187968197 	(obj:0)
x#9#6                                               1 	(obj:0)
x#10#5                              0.790633001846007 	(obj:0)
x#10#7                              0.209366998153993 	(obj:0)
x#11#7                                              1 	(obj:0)
x#12#7                                              1 	(obj:0)
x#13#6                                              1 	(obj:0)
x#14#2                                              1 	(obj:0)
x#15#4                                              1 	(obj:0)
x#16#2                                              1 	(obj:0)
x#17#4                                              1 	(obj:0)
x#18#1                              0.582498041986943 	(obj:0)
x#18#7                              0.417501958013057 	(obj:0)
x#19#1                                              1 	(obj:0)
x#20#5                              0.370971671024036 	(obj:0)
x#20#6                              0.629028328975964 	(obj:0)
z                                    72.6321428571429 	(obj:1)
